%chk=mol_7.chk
# hf/3-21g geom=connectivity

mol_7

0 1
 C                  6.24284369    1.92294331   -2.45411045
 C                  7.75794969    1.92294331   -2.45411045
 C                  8.30988069    3.33402131   -2.45411045
 C                  7.76021769    4.13855831   -1.29344945
 C                  6.24509269    4.13921931   -1.29393845
 C                  5.69229269    2.72859831   -1.29523445
 H                  9.42847969    3.30003031   -2.39139645
 H                  8.13049869    1.37730931   -1.54754845
 H                  8.13324369    1.37308431   -3.35602045
 H                  8.13275269    3.70371331   -0.32883845
 H                  8.13624069    5.19269531   -1.35544445
 H                  5.86977269    4.68864731   -0.39182445
 H                  5.87323769    4.68582031   -2.20026145
 H                  5.95829669    2.22287631   -0.32991945
 H                  8.04126269    3.83965431   -3.41865645
 C                  5.72682657    0.47459424   -2.36686769
 H                  4.65703141    0.47524382   -2.38779350
 H                  6.06544638    0.02966717   -1.45457578
 C                  6.26315554   -0.33432681   -3.56252565
 H                  7.25702009   -0.66881380   -3.34980116
 H                  5.63087318   -1.18052121   -3.73303684
 H                  6.27421733    0.28431230   -4.43548801
 C                  5.73120844    2.51741617   -3.77941471
 H                  6.38803659    2.23329715   -4.57487255
 H                  4.74737488    2.14760012   -3.97993308
 H                  5.70272717    3.58439394   -3.70426640
 C                  4.15563357    2.77676505   -1.38444615
 H                  3.76208388    1.78556043   -1.29765879
 H                  3.86594554    3.19435959   -2.32603823
 C                  3.60232659    3.65050144   -0.24337818
 H                  3.66509744    4.68186558   -0.52131313
 H                  2.58034781    3.39215558   -0.05975690
 H                  4.17709416    3.48455947    0.64375512

 1 2 1.0 6 1.0 16 1.0 23 1.0
 2 3 1.0 8 1.0 9 1.0
 3 4 1.0 7 1.0 15 1.0
 4 5 1.0 10 1.0 11 1.0
 5 6 1.0 12 1.0 13 1.0
 6 14 1.0 27 1.0
 7
 8
 9
 10
 11
 12
 13
 14
 15
 16 17 1.0 18 1.0 19 1.0
 17
 18
 19 20 1.0 21 1.0 22 1.0
 20
 21
 22
 23 24 1.0 25 1.0 26 1.0
 24
 25
 26
 27 28 1.0 29 1.0 30 1.0
 28
 29
 30 31 1.0 32 1.0 33 1.0
 31
 32
 33

