%chk=mol_8.chk
# hf/3-21g geom=connectivity

mol_8

0 1
 C                  0.01045743   -3.73327533   -0.31938068
 H                  0.36711186   -4.74208534   -0.31938068
 H                  0.36713027   -3.22887714   -1.19303218
 H                 -1.05954257   -3.73326215   -0.31938068
 C                  0.52379965   -3.00731906    0.93802429
 H                  0.16874331   -1.99794597    0.93704677
 H                  0.16553054   -3.51058749    1.81167418
 C                  2.06379705   -3.00977541    0.93943296
 H                  2.42047007   -2.50505133    1.81289616
 H                  2.41885328   -4.01914811    0.94078670
 C                  2.57943580   -2.28591514   -0.31824067
 H                  2.60878266   -2.97269758   -1.13822155
 H                  1.92437811   -1.47403779   -0.55626294
 C                  3.99563006   -1.74209825   -0.05318029
 H                  4.38236840   -1.30265606   -0.94884988
 H                  4.63366436   -2.54385587    0.25503547
 C                  3.93691734   -0.67681832    1.05737430
 H                  3.94652196   -1.15731102    2.01337352
 C                  2.84590855    0.01906362    0.93308372
 H                  2.52897056    0.00594597   -0.08881561
 H                  2.08056974   -0.40447078    1.54934268
 H                  3.03020159    1.02847983    1.23642344
 C                  5.15680691    0.25565898    0.93924080
 H                  5.15292070    0.95263493    1.75109635
 H                  5.11051790    0.78779893    0.01210305
 C                  6.44891075   -0.58087201    0.98702749
 H                  6.63105082   -1.01112735    0.02442407
 H                  6.34232439   -1.36069889    1.71187877
 C                  7.63227317    0.32421097    1.37699952
 H                  7.69441412    1.14459474    0.69288771
 H                  7.48419648    0.69733007    2.36884399
 C                  8.93931828   -0.48845820    1.32406652
 H                  9.09089824   -0.85583731    0.33060987
 H                  9.76068043    0.13860880    1.60164747
 H                  8.87451748   -1.31279265    2.00316414

 1 2 1.0 3 1.0 4 1.0 5 1.0
 2
 3
 4
 5 6 1.0 7 1.0 8 1.0
 6
 7
 8 9 1.0 10 1.0 11 1.0
 9
 10
 11 12 1.0 13 1.0 14 1.0
 12
 13
 14 15 1.0 16 1.0 17 1.0
 15
 16
 17 18 1.0 19 2.0 23 1.0
 18
 19 20 1.0 21 1.0 22 1.0
 20
 21
 22
 23 24 1.0 25 1.0 26 1.0
 24
 25
 26 27 1.0 28 1.0 29 1.0
 27
 28
 29 30 1.0 31 1.0 32 1.0
 30
 31
 32 33 1.0 34 1.0 35 1.0
 33
 34
 35

