%chk=mol_6.chk
# hf/3-21g geom=connectivity

mol_6

0 1
 C                  7.51996620    1.92488879   -2.68392637
 C                  9.03507220    1.92488879   -2.68392637
 C                  9.58700320    3.33596679   -2.68392637
 C                  9.03734020    4.14050379   -1.52326537
 C                  7.52221520    4.14116479   -1.52375437
 C                  6.96941520    2.73054379   -1.52505037
 H                 10.70560220    3.30197579   -2.62121237
 H                  9.40762120    1.37925479   -1.77736437
 H                  9.41036620    1.37502979   -3.58583637
 H                  7.14727820    2.35791779   -3.64931137
 H                  9.40987520    3.70565879   -0.55865437
 H                  7.14689520    4.69059279   -0.62164037
 H                  7.15036020    4.68776579   -2.43007737
 H                  7.23541920    2.22482179   -0.55973537
 H                  5.85086720    2.76560479   -1.58998837
 H                  9.31838520    3.84159979   -3.64847237
 C                  7.00394908    0.47653972   -2.59668361
 C                  7.54027805   -0.33238133   -3.79234157
 H                  8.53423333   -0.66666167   -3.57971619
 H                  6.90813437   -1.17871018   -3.96269960
 H                  7.55111044    0.28618557   -4.66535798
 C                  7.49130843   -0.16382261   -1.28366535
 H                  7.10293939    0.38695499   -0.45257357
 H                  7.14883424   -1.17621536   -1.23197072
 H                  8.56077135   -0.14713432   -1.25416023
 C                  5.46424389    0.47747463   -2.62680113
 H                  5.12276592    1.14982942   -3.38590048
 H                  5.11107415   -0.50986799   -2.83969942
 H                  5.08909689    0.79311204   -1.67572923
 C                  9.55395161    5.58876415   -1.60843921
 H                  9.18119297    6.14988185   -0.77711622
 H                 10.62373800    5.58767381   -1.58708767
 H                  9.21586798    6.03499519   -2.52029300

 1 2 1.0 6 1.0 10 1.0 17 1.0
 2 3 1.0 8 1.0 9 1.0
 3 4 1.0 7 1.0 16 1.0
 4 5 1.0 11 1.0 30 1.0
 5 6 1.0 12 1.0 13 1.0
 6 15 1.0 14 1.0
 7
 8
 9
 10
 11
 12
 13
 14
 15
 16
 17 18 1.0 22 1.0 26 1.0
 18 19 1.0 20 1.0 21 1.0
 19
 20
 21
 22 23 1.0 24 1.0 25 1.0
 23
 24
 25
 26 27 1.0 28 1.0 29 1.0
 27
 28
 29
 30 31 1.0 32 1.0 33 1.0
 31
 32
 33

