%chk=mol_3.chk
# hf/3-21g geom=connectivity

mol_3

0 1
 C                  1.03375275    2.03239319   -1.06226511
 C                  2.54853975    2.03239319   -1.06226511
 C                  3.15540075    3.41819519   -1.06226511
 C                  0.44849075    2.40064319    0.28527489
 C                  2.69143175    4.28453119    0.09048989
 C                  0.20842175    3.88297619    0.47730289
 C                  1.27632975    4.79255919   -0.09191811
 H                  0.65386075    2.73423319   -1.84978111
 H                  2.91604975    3.92924319   -2.03260711
 H                  2.77265275    3.71318119    1.05174289
 H                  1.12634875    2.02645419    1.09865889
 H                  0.10751275    4.08019119    1.57860889
 H                  0.68180375    1.00194019   -1.33778411
 H                  4.27274875    3.31605619   -1.01012711
 H                 -0.53291225    1.86911119    0.41394189
 H                  3.38284275    5.16630819    0.16858989
 H                  1.07935975    4.95660419   -1.18530111
 C                  3.04335720    1.28479930   -2.31440690
 H                  4.11320274    1.28813044   -2.33227890
 H                  2.69019414    0.27506240   -2.28976455
 H                  2.67047627    1.77177319   -3.19117155
 C                  3.05993505    1.25124843    0.16243391
 H                  2.50915168    0.33899755    0.25905701
 H                  4.09882259    1.02888269    0.03528768
 H                  2.92715084    1.84312186    1.04388396
 C                  1.14685819    6.16682979    0.59088306
 H                  1.80826490    6.86319249    0.11916264
 H                  0.13923127    6.51569200    0.50209597
 H                  1.40312094    6.07645482    1.62580420
 C                 -1.13681246    4.26234875   -0.16924284
 H                 -1.79939526    3.42297483   -0.13269873
 H                 -1.57024802    5.08238326    0.36421477
 H                 -0.97546942    4.54527808   -1.18846775

 1 2 1.0 4 1.0 8 1.0 13 1.0
 2 3 1.0 18 1.0 22 1.0
 3 5 1.0 9 1.0 14 1.0
 4 6 1.0 11 1.0 15 1.0
 5 7 1.0 10 1.0 16 1.0
 6 7 1.0 12 1.0 30 1.0
 7 17 1.0 26 1.0
 8
 9
 10
 11
 12
 13
 14
 15
 16
 17
 18 19 1.0 20 1.0 21 1.0
 19
 20
 21
 22 23 1.0 24 1.0 25 1.0
 23
 24
 25
 26 27 1.0 28 1.0 29 1.0
 27
 28
 29
 30 31 1.0 32 1.0 33 1.0
 31
 32
 33

