%chk=mol_5.chk
# hf/3-21g geom=connectivity

mol_5

0 1
 C                  7.62619650    4.83877194   -1.92207160
 C                  9.14805450    4.83877194   -1.92207160
 C                  9.61682750    6.28663694   -1.92207160
 C                  8.38908750    7.17620494   -2.05525760
 C                  7.15699050    6.28309194   -2.02566160
 H                  7.23608150    4.36836094   -0.98456760
 H                  9.53668150    4.30417394   -2.82535160
 H                  9.54142150    4.29803994   -1.02523460
 H                 10.16376250    6.51832994   -0.97348360
 H                 10.32878850    6.46981294   -2.76528760
 H                  8.35341050    7.92227494   -1.22227360
 H                  8.42820850    7.75378994   -3.01299360
 H                  6.54524450    6.43071394   -2.95086460
 C                  7.08670963    4.00958143   -3.10232455
 H                  6.01689069    4.02372015   -3.08862969
 H                  7.43719801    4.42866427   -4.02233949
 C                  7.58252119    2.55687620   -2.97815378
 H                  8.54662631    2.46887784   -3.43384842
 H                  7.65113257    2.29058084   -1.94409417
 C                  6.59199291    1.61408961   -3.68639610
 H                  5.64964164    1.64137391   -3.18030357
 H                  6.46160308    1.93015098   -4.70030127
 C                  7.14541020    0.17714241   -3.66376764
 H                  8.07950790    0.14644587   -4.18474673
 H                  7.29199996   -0.13268460   -2.65015101
 C                  6.14344531   -0.76970485   -4.35016884
 H                  5.99238766   -0.45640081   -5.36205924
 H                  6.53061936   -1.76714435   -4.33964747
 H                  5.21115876   -0.74344350   -3.82571472
 C                  6.25918064    6.64338676   -0.82744413
 H                  6.03719885    7.68986353   -0.85003722
 H                  5.34855312    6.08433212   -0.88326013
 H                  6.76798731    6.40629921    0.08349235

 1 2 1.0 5 1.0 6 1.0 14 1.0
 2 3 1.0 7 1.0 8 1.0
 3 4 1.0 9 1.0 10 1.0
 4 5 1.0 11 1.0 12 1.0
 5 13 1.0 30 1.0
 6
 7
 8
 9
 10
 11
 12
 13
 14 15 1.0 16 1.0 17 1.0
 15
 16
 17 18 1.0 19 1.0 20 1.0
 18
 19
 20 21 1.0 22 1.0 23 1.0
 21
 22
 23 24 1.0 25 1.0 26 1.0
 24
 25
 26 27 1.0 28 1.0 29 1.0
 27
 28
 29
 30 31 1.0 32 1.0 33 1.0
 31
 32
 33

